
******************************************************************************
This program contains Ipopt, a library for large-scale nonlinear optimization.
 Ipopt is released as open source code under the Eclipse Public License (EPL).
         For more information visit http://projects.coin-or.org/Ipopt
******************************************************************************

This is Ipopt version 3.12.6, running with linear solver ma57.

Number of nonzeros in equality constraint Jacobian...:       36
Number of nonzeros in inequality constraint Jacobian.:        0
Number of nonzeros in Lagrangian Hessian.............:       16

Total number of variables............................:        6
                     variables with only lower bounds:        0
                variables with lower and upper bounds:        0
                     variables with only upper bounds:        0
Total number of equality constraints.................:        6
Total number of inequality constraints...............:        0
        inequality constraints with only lower bounds:        0
   inequality constraints with lower and upper bounds:        0
        inequality constraints with only upper bounds:        0

iter    objective    inf_pr   inf_du lg(mu)  ||d||  lg(rg) alpha_du alpha_pr  ls
   0  0.0000000e+00 1.71e+01 0.00e+00  -1.0 0.00e+00    -  0.00e+00 0.00e+00   0
   1  0.0000000e+00 1.07e+01 1.85e+10  -1.0 2.69e+00  -2.0 1.00e+00 1.00e+00h  1
   2  0.0000000e+00 9.13e+00 4.51e+10  -1.0 6.16e-02  11.8 1.00e+00 1.00e+00h  1
   3  0.0000000e+00 4.56e+00 7.35e+10  -1.0 2.97e-01  11.4 1.00e+00 1.00e+00h  1
   4  0.0000000e+00 4.40e+00 7.66e+09  -1.0 5.15e-01  10.9 1.00e+00 1.00e+00H  1
   5  0.0000000e+00 4.46e+00 9.89e+09  -1.0 4.45e-01  10.4 1.00e+00 1.00e+00H  1
   6  0.0000000e+00 4.06e+00 1.27e+10  -1.0 1.86e-01  10.8 1.00e+00 1.00e+00h  1
   7  0.0000000e+00 3.55e+00 1.53e+10  -1.0 1.45e+00  10.4 1.00e+00 1.25e-01h  4
   8  0.0000000e+00 2.83e+00 2.09e+10  -1.0 3.45e-01  10.8 1.00e+00 1.00e+00h  1
   9  0.0000000e+00 2.65e+00 2.28e+10  -1.0 1.39e-01  11.2 1.00e+00 1.00e+00h  1
iter    objective    inf_pr   inf_du lg(mu)  ||d||  lg(rg) alpha_du alpha_pr  ls
  10  0.0000000e+00 3.09e+00 6.63e+10  -1.0 9.85e-01  10.7 1.00e+00 1.00e+00H  1
  11r 0.0000000e+00 3.09e+00 9.99e+02   0.5 0.00e+00  11.2 0.00e+00 4.77e-07R 22
  12r 0.0000000e+00 1.53e+00 9.62e+02   0.5 2.88e+03    -  1.00e+00 1.06e-03f  1
  13r 0.0000000e+00 8.73e+01 2.10e+02   0.5 6.25e+01    -  1.00e+00 4.68e-02f  1
  14r 0.0000000e+00 3.01e+01 1.79e+01   0.5 1.46e+00    -  1.00e+00 9.55e-01f  1
  15r 0.0000000e+00 2.26e+01 1.62e+01  -0.2 5.21e+00    -  1.00e+00 1.00e+00f  1
  16r 0.0000000e+00 9.35e+00 1.95e+03  -0.2 2.50e+02    -  1.36e-02 1.39e-02H  1
  17r 0.0000000e+00 8.48e+00 1.79e+03  -0.2 3.50e+01    -  5.26e-04 1.26e-02h  1
  18r 0.0000000e+00 1.11e+01 4.31e+03  -0.2 3.06e+01    -  7.15e-03 3.92e-02h  1
  19r 0.0000000e+00 1.06e+01 4.33e+03  -0.2 1.37e+00   4.0 1.46e-01 4.86e-02f  1
iter    objective    inf_pr   inf_du lg(mu)  ||d||  lg(rg) alpha_du alpha_pr  ls
  20r 0.0000000e+00 1.04e+01 4.28e+03  -0.2 1.28e+00   3.5 1.60e-02 1.24e-02f  1
  21r 0.0000000e+00 1.03e+01 5.63e+03  -0.2 2.18e+00   3.0 4.99e-02 6.94e-03f  1
  22r 0.0000000e+00 1.01e+01 5.32e+03  -0.2 1.89e+00   2.6 1.57e-03 2.01e-02f  1
  23r 0.0000000e+00 9.12e+00 4.51e+03  -0.2 1.87e+00   2.1 9.55e-01 7.88e-02f  1
  24r 0.0000000e+00 9.02e+00 4.83e+03  -0.2 6.51e+00    -  1.32e-01 1.49e-02h  1
  25r 0.0000000e+00 3.69e+00 4.77e+03  -0.2 1.12e+01   1.6 2.89e-03 1.02e-02H  1
  26r 0.0000000e+00 3.10e+00 4.38e+03  -0.2 9.68e+00    -  2.23e-04 8.19e-02h  3
  27r 0.0000000e+00 2.93e+00 4.27e+03  -0.2 1.09e+00   2.9 3.63e-01 5.12e-02f  1
  28r 0.0000000e+00 2.93e+00 4.48e+03  -0.2 4.04e+00   2.5 2.57e-01 1.70e-03h  1
  29r 0.0000000e+00 2.93e+00 4.25e+03  -0.2 6.50e+00    -  5.26e-02 8.75e-04h  1
iter    objective    inf_pr   inf_du lg(mu)  ||d||  lg(rg) alpha_du alpha_pr  ls
  30r 0.0000000e+00 2.72e+00 4.09e+03  -0.2 6.39e+00    -  5.62e-04 3.85e-02h  3
  31r 0.0000000e+00 2.71e+00 4.46e+03  -0.2 1.03e+00   2.9 1.00e+00 3.04e-03h  1
  32r 0.0000000e+00 2.66e+00 4.49e+03  -0.2 6.20e+00    -  1.05e-02 1.23e-02h  3
  33r 0.0000000e+00 2.63e+00 4.55e+03  -0.2 1.00e+01   2.4 3.24e-04 6.25e-03h  7
  34r 0.0000000e+00 2.62e+00 4.82e+03  -0.2 1.06e+00   2.8 1.00e+00 3.79e-03h  1
  35r 0.0000000e+00 2.58e+00 5.05e+03  -0.2 6.58e+00    -  6.26e-03 1.14e-02h  3
  36r 0.0000000e+00 2.58e+00 6.68e+03  -0.2 9.96e-01   3.3 5.94e-02 1.81e-04h  1
  37r 0.0000000e+00 2.58e+00 5.11e+03  -0.2 7.19e+00    -  2.34e-02 6.36e-04h  1
  38r 0.0000000e+00 2.54e+00 5.68e+03  -0.2 7.43e+00    -  2.29e-04 8.98e-03f  3
  39r 0.0000000e+00 2.54e+00 7.30e+03  -0.2 1.10e+00   2.8 9.33e-01 8.21e-04h  1
iter    objective    inf_pr   inf_du lg(mu)  ||d||  lg(rg) alpha_du alpha_pr  ls
  40r 0.0000000e+00 2.51e+00 6.09e+03  -0.2 6.85e+00    -  2.31e-02 7.20e-03f  2
  41r 0.0000000e+00 2.49e+00 6.48e+03  -0.2 8.93e+00    -  1.60e-04 4.10e-03f  3
  42r 0.0000000e+00 2.49e+00 7.47e+03  -0.2 1.02e+00   3.2 4.19e-01 8.26e-04h  1
  43r 0.0000000e+00 2.49e+00 6.68e+03  -0.2 9.84e+00    -  6.59e-03 2.56e-04h  1
  44r 0.0000000e+00 2.48e+00 7.05e+03  -0.2 1.01e+01    -  6.32e-05 3.04e-03f  3
  45r 0.0000000e+00 2.48e+00 8.43e+03  -0.2 1.21e+00   2.7 1.00e+00 8.86e-04h  1
  46r 0.0000000e+00 2.47e+00 7.01e+03  -0.2 8.96e+00    -  1.30e-02 1.34e-03h  1
  47r 0.0000000e+00 2.45e+00 7.59e+03  -0.2 9.43e+00    -  1.21e-04 4.85e-03f  6
  48r 0.0000000e+00 2.45e+00 8.59e+03  -0.2 1.04e+00   3.2 4.83e-01 9.53e-04h  1
  49r 0.0000000e+00 2.43e+00 8.31e+03  -0.2 8.22e+00    -  6.71e-03 4.83e-03f  6
iter    objective    inf_pr   inf_du lg(mu)  ||d||  lg(rg) alpha_du alpha_pr  ls
  50r 0.0000000e+00 2.43e+00 8.75e+03  -0.2 1.85e+01    -  2.56e-05 1.42e-03f  2
  51r 0.0000000e+00 2.42e+00 9.57e+03  -0.2 2.91e+00   2.7 1.00e+00 1.23e-03h  1
  52r 0.0000000e+00 2.40e+00 9.52e+03  -0.2 9.00e+00    -  6.10e-03 6.19e-03h  3
  53r 0.0000000e+00 2.39e+00 9.74e+03  -0.2 1.61e+02    -  2.70e-06 6.24e-05f  4
  54r 0.0000000e+00 2.39e+00 1.08e+04  -0.2 1.07e+00   3.1 5.93e-01 1.06e-03h  1
  55r 0.0000000e+00 2.39e+00 9.93e+03  -0.2 1.08e+01    -  4.03e-03 2.29e-04h  1
  56r 0.0000000e+00 2.39e+00 1.00e+04  -0.2 1.51e+01    -  2.78e-05 3.09e-04f  6
  57r 0.0000000e+00 2.39e+00 1.05e+04  -0.2 1.01e+00   3.5 5.03e-02 1.95e-04h  1
  58r 0.0000000e+00 2.39e+00 1.04e+04  -0.2 8.36e+00    -  2.44e-03 1.81e-03f  7
  59r 0.0000000e+00 2.38e+00 1.05e+04  -0.2 3.84e+01    -  4.73e-06 1.22e-04f  3
iter    objective    inf_pr   inf_du lg(mu)  ||d||  lg(rg) alpha_du alpha_pr  ls
  60r 0.0000000e+00 2.38e+00 1.08e+04  -0.2 1.05e+00   3.1 6.95e-02 1.55e-04h  2
  61r 0.0000000e+00 2.38e+00 1.02e+04  -0.2 1.70e+00   3.5 3.45e-04 1.30e-02h  1
  62r 0.0000000e+00 2.09e+00 2.54e+03  -0.2 1.71e+00   3.0 1.08e-01 4.21e-01h  1
  63r 0.0000000e+00 2.10e+00 1.63e+03  -0.2 7.58e-01   2.5 3.59e-03 3.60e-01h  1
  64r 0.0000000e+00 1.38e+00 5.11e+02  -0.2 4.81e-01   3.0 1.00e+00 1.00e+00f  1
  65r 0.0000000e+00 1.24e+00 4.44e+02  -0.2 2.08e+00   2.5 4.52e-01 1.93e-01f  1
  66r 0.0000000e+00 1.21e+00 4.28e+02  -0.2 2.17e-01   2.9 1.00e+00 1.84e-02f  1
  67r 0.0000000e+00 1.52e+00 3.05e+01  -0.2 1.01e-01   2.4 1.00e+00 1.00e+00f  1
  68r 0.0000000e+00 2.76e+00 1.40e+01  -0.9 1.56e-01   2.0 1.00e+00 1.00e+00f  1
  69r 0.0000000e+00 7.39e+01 3.44e+01  -0.9 8.53e-01   1.5 1.00e+00 1.00e+00f  1
iter    objective    inf_pr   inf_du lg(mu)  ||d||  lg(rg) alpha_du alpha_pr  ls
  70r 0.0000000e+00 9.04e+00 2.87e+01  -0.9 4.57e-01   1.9 1.00e+00 1.00e+00f  1
  71r 0.0000000e+00 1.06e+00 2.43e+01  -0.9 1.23e-01   2.3 1.00e+00 1.00e+00h  1
  72r 0.0000000e+00 9.45e+00 2.05e+01  -0.9 3.24e-01   1.9 1.00e+00 1.00e+00f  1
  73r 0.0000000e+00 8.18e+02 1.69e+03  -0.9 3.28e+00   1.4 1.00e+00 1.00e+00f  1
  74r 0.0000000e+00 3.98e+01 2.63e+02  -0.9 7.09e-01   2.7 1.00e+00 1.00e+00f  1
  75r 0.0000000e+00 3.36e+00 1.74e+02  -0.9 8.69e-01   2.2 1.00e+00 1.00e+00h  1
  76r 0.0000000e+00 2.34e+00 1.16e+02  -0.9 4.52e-01   1.8 1.00e+00 1.00e+00f  1
  77r 0.0000000e+00 6.00e+00 1.26e+02  -0.9 1.36e+00   1.3 1.00e+00 1.00e+00f  1
  78r 0.0000000e+00 1.43e+01 7.68e+02  -0.9 2.67e+00   0.8 1.00e+00 1.00e+00f  1
  79r 0.0000000e+00 9.08e+00 2.61e+03  -0.9 5.32e+00   0.3 1.00e+00 1.00e+00f  1
iter    objective    inf_pr   inf_du lg(mu)  ||d||  lg(rg) alpha_du alpha_pr  ls
  80r 0.0000000e+00 2.78e+01 5.18e+03  -0.9 6.11e+00  -0.2 1.00e+00 1.00e+00f  1
  81r 0.0000000e+00 5.45e+00 9.01e+02  -0.9 1.56e+00   0.3 1.00e+00 1.00e+00h  1
  82r 0.0000000e+00 2.55e+00 1.45e+03  -0.9 2.14e+00  -0.2 1.00e+00 1.00e+00f  1
  83r 0.0000000e+00 3.22e-01 1.78e+02  -0.9 8.20e-01   0.2 1.00e+00 1.00e+00h  1
  84r 0.0000000e+00 7.43e+00 5.31e+03  -0.9 5.59e+00  -0.3 1.00e+00 1.00e+00f  1
  85r 0.0000000e+00 2.71e+00 1.74e+03  -0.9 2.96e+00   0.2 1.00e+00 1.00e+00f  1
  86r 0.0000000e+00 1.74e+02 2.23e+05  -0.9 2.73e+01  -0.3 1.00e+00 1.00e+00f  1
  87r 0.0000000e+00 1.69e+02 2.85e+05  -0.9 1.63e+01   1.0 1.00e+00 4.55e-01f  1
  88r 0.0000000e+00 2.52e+01 3.14e+04  -0.9 1.83e+00   1.4 1.31e-02 9.83e-01f  1
  89r 0.0000000e+00 7.95e+00 1.09e+04  -0.9 1.01e+00   1.0 1.00e+00 7.07e-01f  1
iter    objective    inf_pr   inf_du lg(mu)  ||d||  lg(rg) alpha_du alpha_pr  ls
  90r 0.0000000e+00 2.48e+00 1.94e+04  -0.9 2.86e+00   0.5 1.00e+00 1.00e+00f  1
  91r 0.0000000e+00 1.13e+01 1.38e+04  -0.9 9.05e+00   0.0 1.00e+00 1.00e+00f  1
  92r 0.0000000e+00 2.88e+01 2.90e+04  -0.9 4.91e+01  -0.5 1.00e+00 2.12e-01f  1
  93r 0.0000000e+00 2.88e+01 2.90e+04  -0.9 2.04e+02  -0.9 7.00e-02 2.57e-04f  1
  94r 0.0000000e+00 1.21e+01 1.53e+04  -0.9 6.26e+00    -  1.00e+00 1.00e+00f  1
  95r 0.0000000e+00 5.09e+00 4.86e+03  -0.9 6.68e+00    -  1.00e+00 4.34e-01h  1
  96r 0.0000000e+00 7.25e-01 4.08e+03  -0.9 2.23e+00    -  1.00e+00 1.00e+00h  1
  97r 0.0000000e+00 4.16e-02 3.68e+02  -0.9 4.35e-01    -  1.00e+00 1.00e+00h  1
  98r 0.0000000e+00 4.28e-05 2.06e-01  -0.9 7.30e-03    -  1.00e+00 1.00e+00h  1
  99r 0.0000000e+00 1.82e-06 1.60e+00  -3.6 2.16e-03    -  1.00e+00 1.00e+00f  1
iter    objective    inf_pr   inf_du lg(mu)  ||d||  lg(rg) alpha_du alpha_pr  ls
 100r 0.0000000e+00 5.58e-10 3.36e-03  -3.6 5.16e-06    -  1.00e+00 1.00e+00h  1

Number of Iterations....: 100

                                   (scaled)                 (unscaled)
Objective...............:   0.0000000000000000e+00    0.0000000000000000e+00
Dual infeasibility......:   0.0000000000000000e+00    0.0000000000000000e+00
Constraint violation....:   5.5795486286758234e-10    5.5795486286758234e-10
Complementarity.........:   0.0000000000000000e+00    0.0000000000000000e+00
Overall NLP error.......:   5.5795486286758234e-10    5.5795486286758234e-10


Number of objective function evaluations             = 217
Number of objective gradient evaluations             = 13
Number of equality constraint evaluations            = 217
Number of inequality constraint evaluations          = 0
Number of equality constraint Jacobian evaluations   = 102
Number of inequality constraint Jacobian evaluations = 0
Number of Lagrangian Hessian evaluations             = 100
Total CPU secs in IPOPT (w/o function evaluations)   =      0.053
Total CPU secs in NLP function evaluations           =      0.000

EXIT: Optimal Solution Found.

************************ CUTEst statistics ************************


 Package used            :  IPOPT
 Problem                 :  HEART6    
 # variables             =               6
 # constraints           =               6
 # objective functions   =        0.2310000E+03
 # objective gradients   =        0.1400000E+02
 # objective Hessians    =        0.1000000E+03
 # Hessian-vector prdct  =        0.0000000E+00
 # constraints functions =        0.3210000E+03
 # constraints gradients =        0.1040000E+03
 # constraints Hessians  =        0.1000000E+03
 Exit code               =               0
 Final f                 =   0.0000000E+00
 Set up time             =            0.00 seconds
 Solve time              =            0.18 seconds


******************************************************************

System Time =       0.0460000001 s.
